Route #1: 21 22 25 27 29 32 33 24 20
Route #2: 49 52 31 35 37 38 39 36 34 30 28 26 23
Route #3: 41 40 54 53 56 58 60 48 51 50 47
Route #4: 69 66 68 55 57 59 44 45 46 42 43
Route #5: 67 65 62 64 61 72 74 63
Route #6: 89 83 82 81 78 76 71 70 73 77 79 80
Route #7: 91 88 85 84 86 87 90
Route #8: 98 96 95 94 92 93 97 100 99
Route #9: 10 11 8 9 6 7 5 3 4 2 1 75
Route #10: 17 18 19 16 14 12 15 13
Cost 875
